p cnf 13 49
11 -12 13 0
2 3 9 0
-2 6 8 0
-7 9 -12 0
4 9 -11 0
2 5 -8 0
-2 11 13 0
-4 7 -11 0
-7 10 12 0
3 -9 12 0
7 9 12 0
3 -7 -9 0
-1 2 -5 0
1 2 -4 0
3 -9 -13 0
-4 -7 -13 0
3 9 10 0
1 2 11 0
-5 -12 13 0
-2 9 11 0
-7 10 -11 0
-6 7 12 0
-5 -6 12 0
7 -10 -13 0
8 -9 -12 0
7 -11 13 0
-4 5 -13 0
3 5 -6 0
-1 -9 -13 0
10 -12 -13 0
-1 4 6 0
-7 -8 13 0
5 7 10 0
3 10 -13 0
3 -11 -13 0
-1 -9 -11 0
-2 -8 -11 0
-4 12 -13 0
1 -8 10 0
-3 7 8 0
-3 9 12 0
-2 5 -6 0
5 -7 -12 0
-8 -12 -13 0
2 -6 -13 0
-6 10 11 0
1 -4 7 0
6 10 -13 0
-1 -9 12 0
